61 24 81 70 30 92 96 84 84 97 33 12 31 62 11 97 39 47 11 73 69 30 42 85 67 31 98 58 68 51 69 89 24 71 71 56 71 60 64 73 12 60 16 30 82 48 27 13 98 69
18 13 30 6 24 32 11 48 12 39 18 21 40 44 8 6 10 46 8 33 22 30 48 38 14 40 18 35 19 12 18 27 44 25 20 49 22 28 30 29 49 45 33 19 49 5 29 11 13 28
150 120 140 130 125